p cnf 33 33
-1 31 0 
-2 31 0 
-3 -4 24 25 29 31 0 
-5 31 0 
-6 31 0 
-7 8 9 10 11 12 20 21 22 32 0 
-8 7 9 10 11 12 20 21 22 32 0 
-9 7 8 10 11 12 20 21 22 32 0 
-10 7 8 9 11 12 20 21 22 32 0 
-11 7 8 9 10 12 20 21 22 32 0 
-12 7 8 9 10 11 20 21 22 32 0 
-4 24 25 29 -13 31 0 
-5 32 0 
-14 32 0 
-15 -16 17 31 0 
-17 16 -13 31 0 
-18 -13 31 0 
-19 -1 32 0 
-20 7 8 9 10 11 12 21 22 32 0 
-21 7 8 9 10 11 12 20 22 32 0 
-22 7 8 9 10 11 12 20 21 32 0 
-23 -5 32 0 
-24 4 25 29 32 0 
-25 4 24 29 32 0 
-26 32 0 
-1 33 0 
-15 32 0 
-19 -5 32 0 
-27 -25 4 24 29 -28 32 0 
-19 -1 31 0 
-16 17 31 0 
-29 4 24 25 -30 31 0 
-30 31 0 
